data/inter1.mps
NAME         
ROWS
 L  R0001
 N  R0002
COLUMNS
    INT1      'MARKER'                 'INTORG'
    C0001     R0001     964
    C0001     R0002     -184
    C0002     R0001     246
    C0002     R0002     -585
    C0003     R0001     662
    C0003     R0002     -423
    
    INT1END   'MARKER'                 'INTEND'
RHS
    B         R0001     970
 
BOUNDS
 UP BOUND     C0001     1
 UP BOUND     C0002     1
 UP BOUND     C0003     1

ENDATA
